job_count = 12 ;
duration = [|19, 16, 4|22, 8, 15|27, 4, 13|8, 14, 10|23, 4, 3|22, 3, 3|14, 4, 10|5, 2, 8|19, 2, 7|19, 3, 17|3, 3, 19|13, 6, 11|] ;
machine_count = 3 ;
cost = [|22, 23, 51|46, 25, 35|10, 43, 58|11, 34, 38|19, 41, 50|29, 49, 40|19, 49, 34|47, 38, 34|21, 25, 56|45, 29, 51|17, 43, 55|26, 45, 46|] ;
deadline = [32, 21, 27, 38, 15, 27, 34, 11, 18, 35, 39, 17] ;
release = [0, 0, 0, 0, 0, 0, 0, 0, 0, 0, 0, 0] ;
resource = [|8, 8, 8|1, 1, 1|4, 4, 4|3, 3, 3|1, 1, 1|2, 2, 2|3, 3, 3|2, 2, 2|9, 9, 9|4, 4, 4|6, 6, 6|3, 3, 3|] ;
capacities = [10, 10, 10] ;
